Instance: Data/Instances_txt/inst_20_30_4.txt
SetUpTime: 0.7518301010131836

Gurobi 10.0.1 (mac64[x86]) logging started Mo 14 Aug 18:26:06 2023

Set parameter LogFile to value "Output/MILP_RELAXED_inst_20_30_4_2023-08-14_09-45-28.txt"

Gurobi 10.0.1 (mac64[x86]) logging started Mo 14 Aug 18:26:06 2023

Set parameter LogFile to value "Output/MILP_RELAXED_inst_20_30_4_2023-08-14_09-45-28.txt"
Gurobi Optimizer version 10.0.1 build v10.0.1rc0 (mac64[x86])

CPU model: Intel(R) Core(TM) i5-1038NG7 CPU @ 2.00GHz
Thread count: 4 physical cores, 8 logical processors, using up to 8 threads

Optimize a model with 41 rows, 2540 columns and 19772 nonzeros
Model fingerprint: 0x55227b64
Coefficient statistics:
  Matrix range     [1e+00, 1e+00]
  Objective range  [8e+00, 2e+03]
  Bounds range     [1e+00, 1e+00]
  RHS range        [1e+00, 1e+00]
Presolve removed 2 rows and 0 columns
Presolve time: 0.01s
Presolved: 39 rows, 2540 columns, 19269 nonzeros

Iteration    Objective       Primal Inf.    Dual Inf.      Time
       0    1.6000000e+02   2.000000e+01   0.000000e+00      0s
     128    1.7224000e+03   0.000000e+00   0.000000e+00      0s

Solved in 128 iterations and 0.01 seconds (0.02 work units)
Optimal objective  1.722400000e+03

User-callback calls 186, time in user-callback 0.00 sec

=========================

OUTPUT STATISTICS
Relaxed: true
Time since start: 1.1131291389465332
SetUpTime: 0.7518301010131836
Objective value LB: 1722.3999999999999
Objective value UB: 1728.0
Solving time LB: 0.06694912910461426
Solving time UB: 0.10607409477233887
Gap: 0.0032407407407408196
